33D32945 STP File, STP Format Version 1.0

SECTION Comment
Name    "Series B" 
Creator "A. M. Costa" 
Format  "Z.H. Fu and J. K. Hao"
Remark  "Sparse graph with random weights"
#TotalEdgeCost 854
#BudgetFraction 5
END 

SECTION Graph 
Nodes 75 
Edges 150 
Root 1
Budget 170
HopLimit 12
E 1 8 9 
E 1 24 6 
E 1 26 7 
E 1 48 4 
E 1 58 3 
E 2 7 8 
E 2 27 3 
E 2 51 8 
E 2 56 4 
E 2 74 4 
E 3 46 8 
E 3 75 9 
E 4 26 10 
E 5 18 2 
E 5 51 5 
E 5 69 3 
E 6 18 8 
E 6 70 4 
E 7 61 2 
E 7 66 1 
E 7 71 4 
E 7 75 5 
E 8 17 8 
E 8 23 6 
E 8 40 2 
E 9 31 6 
E 9 34 8 
E 9 38 7 
E 9 41 8 
E 9 43 3 
E 9 46 5 
E 10 30 7 
E 10 35 9 
E 10 37 9 
E 10 39 1 
E 11 30 5 
E 11 56 8 
E 11 73 2 
E 12 15 4 
E 12 17 5 
E 12 39 4 
E 12 40 8 
E 12 68 7 
E 12 70 1 
E 12 73 9 
E 13 18 4 
E 14 21 4 
E 14 32 6 
E 14 33 9 
E 14 49 8 
E 16 34 7 
E 16 51 8 
E 16 59 2 
E 16 64 10 
E 17 50 8 
E 18 42 8 
E 18 66 1 
E 18 73 7 
E 19 39 10 
E 19 71 6 
E 20 50 7 
E 20 69 7 
E 20 71 9 
E 21 60 7 
E 22 40 2 
E 22 62 4 
E 22 72 4 
E 22 73 4 
E 23 26 5 
E 23 27 9 
E 23 29 5 
E 23 45 3 
E 23 46 3 
E 23 48 9 
E 23 58 4 
E 23 73 5 
E 24 27 3 
E 24 62 6 
E 24 65 6 
E 24 69 5 
E 25 39 9 
E 25 60 4 
E 26 36 8 
E 26 61 4 
E 26 73 6 
E 27 44 4 
E 27 75 1 
E 28 46 5 
E 29 30 3 
E 29 39 7 
E 29 64 7 
E 29 67 8 
E 30 74 10 
E 31 37 8 
E 31 46 3 
E 31 64 8 
E 32 41 5 
E 32 43 10 
E 32 62 3 
E 32 67 8 
E 33 38 4 
E 33 45 10 
E 33 75 9 
E 34 36 6 
E 34 42 1 
E 34 45 7 
E 34 46 4 
E 34 48 5 
E 34 67 4 
E 35 45 10 
E 35 53 7 
E 35 59 6 
E 35 65 9 
E 35 73 3 
E 36 45 4 
E 38 73 5 
E 40 71 4 
E 41 69 5 
E 42 53 2 
E 42 60 8 
E 43 50 7 
E 44 51 5 
E 44 73 7 
E 45 59 3 
E 45 71 6 
E 46 55 4 
E 46 64 10 
E 47 68 6 
E 47 75 8 
E 48 49 10 
E 48 54 6 
E 48 65 8 
E 49 58 3 
E 50 71 7 
E 52 56 6 
E 53 55 2 
E 53 73 4 
E 54 66 4 
E 55 58 7 
E 56 65 7 
E 57 63 2 
E 57 64 8 
E 57 75 7 
E 59 66 1 
E 60 64 1 
E 60 71 1 
E 60 72 9 
E 61 75 9 
E 67 72 6 
E 67 75 2 
END 

SECTION ProfitableVertices 
ProfitableVertices 13 
PV 1 54
PV 5 29
PV 9 51
PV 13 8
PV 28 46
PV 36 13
PV 39 96
PV 44 96
PV 50 26
PV 52 58
PV 58 50
PV 59 77
PV 60 98
END 

EOF 
